Investment_problem_Advanced.sol
# Solution for model basic_model
# Objective value = 68902.4865
C0(3) 112500
C1(4) 74995
C2(4) 187500
C3(2) 187500
C4(3) 5
C5(3) 187500
